p cnf 10 50
2 -1 -4 0
-5 8 -6 0
4 10 2 0
5 -1 -10 0
5 -1 -10 0
8 -5 7 0
7 -4 -9 0
-5 9 7 0
10 3 -4 0
3 -4 10 0
3 2 5 0
-3 -8 2 0
-6 2 10 0
-4 5 6 0
2 9 -8 0
5 -8 -1 0
-5 10 9 0
-9 3 5 0
-8 10 -1 0
-4 -9 2 0
9 -8 7 0
10 -2 3 0
-3 -9 6 0
10 -7 -9 0
-3 8 -2 0
-4 -10 8 0
-7 5 -10 0
2 -8 -5 0
-6 2 3 0
7 10 -2 0
-2 -1 -7 0
7 -2 -5 0
-9 -10 -3 0
5 8 1 0
1 -5 6 0
6 -9 -8 0
8 -9 7 0
7 1 -8 0
7 -9 -2 0
8 9 -6 0
4 -1 7 0
9 5 -2 0
-6 3 2 0
10 -1 5 0
5 2 3 0
-6 -10 3 0
-6 5 -2 0
9 10 -2 0
-4 -10 -6 0
9 -6 8 0